NAME : amtsp
TYPE : ATSP
DIMENSION : 8
EDGE_WEIGHT_TYPE : EXPLICIT
EDGE_WEIGHT_FORMAT : FULL_MATRIX
EDGE_WEIGHT_SECTION
100000 -100000 100000 100000 100000 100000 100000 100000 
100000 100000 1679 2093 1786 71 308 368 
0 0 100000 500 702 581 634 403 
0 0 500 100000 466 840 751 530 
0 0 702 466 100000 639 426 431 
0 0 581 840 639 100000 -232 -189 
0 0 634 751 426 -232 100000 -269 
0 0 403 530 431 -189 -269 100000 
